data/CVRPLIB/Vrp-Set-XML100/instances/XML100_1113_12.vrp
NAME : XML100_1113_12
COMMENT : Generated by Queiroga, Sadykov, Uchoa, and Vidal (2021)
TYPE : CVRP
DIMENSION : 101
EDGE_WEIGHT_TYPE : EUC_2D
CAPACITY : 9
NODE_COORD_SECTION
1    246  446 
2    371  367 
3    922  836 
4    340  690 
5    751  143 
6    474  415 
7    895  530 
8    199  922 
9    269  78  
10   144  245 
11   898  108 
12   674  697 
13   99   849 
14   551  163 
15   225  557 
16   829  705 
17   216  99  
18   810  33  
19   984  289 
20   535  100 
21   505  528 
22   635  984 
23   123  300 
24   552  362 
25   780  88  
26   314  613 
27   843  980 
28   973  481 
29   794  406 
30   892  406 
31   17   117 
32   913  824 
33   306  291 
34   299  571 
35   70   13  
36   728  458 
37   906  20  
38   477  870 
39   382  762 
40   743  538 
41   843  647 
42   417  228 
43   866  343 
44   174  288 
45   280  20  
46   304  869 
47   920  967 
48   545  962 
49   785  69  
50   582  458 
51   469  128 
52   560  745 
53   82   726 
54   811  824 
55   256  862 
56   198  206 
57   941  609 
58   946  108 
59   289  955 
60   167  153 
61   930  268 
62   184  918 
63   34   517 
64   401  270 
65   815  367 
66   449  820 
67   899  448 
68   264  704 
69   99   702 
70   742  62  
71   521  561 
72   958  676 
73   971  877 
74   427  80  
75   120  392 
76   182  730 
77   927  495 
78   496  199 
79   426  478 
80   318  483 
81   826  406 
82   370  881 
83   168  212 
84   948  134 
85   283  898 
86   873  536 
87   363  167 
88   39   614 
89   709  563 
90   310  403 
91   684  75  
92   978  205 
93   114  398 
94   710  697 
95   600  66  
96   898  709 
97   654  561 
98   523  363 
99   814  677 
100  865  319 
101  752  168 
DEMAND_SECTION
1    0   
2    1   
3    1   
4    1   
5    1   
6    1   
7    1   
8    1   
9    1   
10   1   
11   1   
12   1   
13   1   
14   1   
15   1   
16   1   
17   1   
18   1   
19   1   
20   1   
21   1   
22   1   
23   1   
24   1   
25   1   
26   1   
27   1   
28   1   
29   1   
30   1   
31   1   
32   1   
33   1   
34   1   
35   1   
36   1   
37   1   
38   1   
39   1   
40   1   
41   1   
42   1   
43   1   
44   1   
45   1   
46   1   
47   1   
48   1   
49   1   
50   1   
51   1   
52   1   
53   1   
54   1   
55   1   
56   1   
57   1   
58   1   
59   1   
60   1   
61   1   
62   1   
63   1   
64   1   
65   1   
66   1   
67   1   
68   1   
69   1   
70   1   
71   1   
72   1   
73   1   
74   1   
75   1   
76   1   
77   1   
78   1   
79   1   
80   1   
81   1   
82   1   
83   1   
84   1   
85   1   
86   1   
87   1   
88   1   
89   1   
90   1   
91   1   
92   1   
93   1   
94   1   
95   1   
96   1   
97   1   
98   1   
99   1   
100  1   
101  1   
DEPOT_SECTION
1
-1
EOF
