data/CVRPLIB/Vrp-Set-XML100/solutions/XML100_1113_12.sol
Route #1: 79
Route #2: 64 42 99 60 18 91 83 57 10
Route #3: 47 21 26 46 72 2 31 53 51
Route #4: 35 85 6 76 27 66 29 80 28
Route #5: 100 4 24 48 36 17 69 90 94
Route #6: 67 45 81 37 65 38 3 25 33
Route #7: 75 54 84 58 7 61 12 52 68
Route #8: 39 40 56 71 95 15 98 93 11
Route #9: 89 32 43 22 74 92 62 87 14
Route #10: 55 82 59 16 8 44 34 30 9
Route #11: 86 73 50 19 13 77 41 63 1
Route #12: 5 97 23 49 88 96 70 20 78
Cost 15439
